max

obj:

+139.9 x0
+106.82 x1
+109.55 x2
+109.02 x3
+129.9 x4
+156.91 x5
+122.83 x6
+132.91 x7
+132.9 x8
+125.03 x9
+120.07 x10
+139.83 x11
+186.66 x12
+186.95 x13
+121.8 x14
+131.51 x15
+132.2 x16
+153.45 x17
+124.96 x18
+127.66 x19
+130.58 x20
+91.26 x21
+166.67 x22
+170.14 x23
+156.39 x24
+141.5 x25
+125.48 x26
+134.5 x27
+121.11 x28
+122.41 x29
+137.44 x30
+118.36 x31
+135.85 x32
+147.22 x33
+145.04 x34
+123.82 x35
+109.7 x36
+102.89 x37
+99.09 x38
+108.96 x39
+73.08 x40
+98.25 x41
+96.84 x42
+99.8 x43
+97.39 x44
+94.04 x45
+130.0 x46
+124.0 x47
+114.94 x48
+113.06 x49
+110.18 x50
+116.4 x51
+134.26 x52
+117.48 x53
+96.09 x54
+24.37 x55
+36.39 x56
+70.53 x57
+77.2 x58
+74.69 x59
+41.84 x60
+38.91 x61
+33.36 x62
+100.95 x63
+100.77 x64
+99.02 x65
+94.64 x66
+96.0 x67
+104.94 x68
+108.53 x69
+115.42 x70
+121.91 x71
+145.35 x72
+178.53 x73
+122.0 x74
+180.0 x75
+177.32 x76
+155.56 x77
+141.19 x78
+127.51 x79
+118.26 x80
+151.39 x81
+93.8 x82
+94.92 x83
+83.31 x84
+81.95 x85
+81.97 x86
+89.09 x87
+99.28 x88
+106.09 x89
+4.88 x90
+107.45 x91
+92.91 x92
+106.17 x93
+102.05 x94
+93.09 x95
+90.19 x96
+116.71 x97
+109.4 x98
+106.61 x99
+103.59 x100
+92.87 x101
+111.06 x102
+127.42 x103
+133.69 x104
+124.02 x105
+113.8 x106
+107.43 x107
+102.42 x108
+123.28 x109
+133.02 x110
+125.1 x111
+91.16 x112
+84.16 x113
+77.83 x114
+80.02 x115
+75.13 x116
+132.25 x117
+120.95 x118
+114.73 x119
+100.13 x120
+72.63 x121
+78.55 x122
+100.37 x123
+104.53 x124
+100.01 x125
+99.37 x126
+109.51 x127
+27.72 x128
+75.41 x129
+84.51 x130
+13.89 x131
+32.29 x132
+90.77 x133
+94.83 x134
+90.29 x135
+80.34 x136
+72.06 x137
+65.03 x138
+29.41 x139
+77.03 x140
+84.16 x141
+99.33 x142
+57.79 x143
+63.62 x144
+27.36 x146
+64.06 x147
+68.39 x148
+72.64 x149
+80.63 x150
+95.0 x151
+69.7 x152
+60.27 x153
+26.91 x154
+12.51 x155
+0.08 x156
-19.96 x157
-20.03 x158
+44.5 x159
+62.29 x160
+71.86 x161
+72.76 x162
+72.73 x163
+28.44 x164
+0.01 x165
-19.62 x166
-34.95 x167
-0.09 x168
+81.81 x169
+73.69 x170
+89.48 x171
+62.69 x172
+61.01 x173
+84.82 x174
+97.6 x175
+85.08 x176
+56.12 x177
+87.66 x178
+78.41 x179
+137.79 x180
+63.36 x181
+53.65 x182
+210.32 x183
+86.0 x184
+88.5 x185
+88.5 x186
+140.5 x187
+195.18 x188
+95.0 x189
+161.21 x190
+268.68 x191
+195.24 x192
+120.07 x193
+139.83 x194
+268.0 x195
+265.15 x196
+122.5 x197
+255.25 x198
+537.36 x199
+191.13 x200
+157.96 x201
+127.66 x202
+130.58 x203
+91.26 x204
+200.0 x205
+180.0 x206
+156.39 x207
+170.0 x208
+140.0 x209
+150.0 x210
+140.0 x211
+140.0 x212
+137.44 x213
+537.55 x214
+537.55 x215
+211.5 x216
+215.02 x217
+108.0 x218
+109.7 x219
+102.89 x220
+105.0 x221
+110.59 x222
+50.38 x223
+98.25 x224
+96.84 x225
+99.8 x226
+97.39 x227
+94.5 x228
+130.0 x229
+124.0 x230
+90.0 x231
+85.0 x232
+80.0 x233
+86.0 x234
+134.26 x235
+117.48 x236
+110.0 x237
+55.4 x238
+80.0 x239
+92.0 x240
+92.0 x241
+85.0 x242
+56.93 x243
+54.5 x244
+55.85 x245
+108.0 x246
+108.0 x247
+109.5 x248
+109.5 x249
+110.0 x250
+108.0 x251
+192.32 x252
+100.0 x253
+100.0 x254
+105.0 x255
+115.0 x256
+268.44 x257
+180.0 x258
+208.0 x259
+155.56 x260
+101.0 x261
+101.0 x262
+157.56 x263
+268.41 x264
+105.0 x265
+107.0 x266
+105.0 x267
+105.0 x268
+102.0 x269
+89.09 x270
+99.28 x271
+496.5 x272
+26.5 x273
+158.0 x274
+105.0 x275
+114.0 x276
+116.0 x277
+110.5 x278
+110.5 x279
+255.19 x280
+95.0 x281
+108.12 x282
+104.69 x283
+60.0 x284
+50.0 x285
+98.5 x286
+194.56 x287
+214.67 x288
+120.5 x289
+114.0 x290
+114.0 x291
+147.58 x292
+402.5 x293
+402.5 x294
+283.53 x295
+283.53 x296
+228.48 x297
+201.27 x298
+182.46 x299
+143.5 x300
+201.25 x301
+115.0 x302
+111.0 x303
+100.0 x304
+604.25 x305
+4699.75 x306
+104.53 x307
+335.7 x308
+574.51 x309
+120.5 x310
+31.5 x311
+75.41 x312
+91.0 x313
+88.0 x314
+34.0 x315
+101.0 x316
+97.5 x317
+97.5 x318
+85.5 x319
+51.5 x320
+38.0 x321
+29.0 x322
+150.0 x323
+150.93 x324
+161.13 x325
+18.0 x326
+51.0 x327
-4.0 x328
+27.36 x329
+42.0 x330
+45.0 x331
+55.5 x332
+70.5 x333
+55.5 x334
+52.5 x335
+60.27 x336
+26.91 x337
+12.51 x338
-19.96 x340
-20.03 x341
+44.5 x342
+62.29 x343
+71.86 x344
+92.0 x345
+92.0 x346
+77.0 x347
-8.0 x348
-20.0 x349
-36.24 x350
+6.6 x351
+81.81 x352
+88.5 x353
+112.0 x354
+74.0 x355
+61.01 x356
+84.82 x357
+97.6 x358
+66.5 x359
+47.0 x360
+87.66 x361
+78.41 x362
+137.79 x363
+63.36 x364
+70.5 x365


s.t.

c0:
-1.0 x366
+1.0 x0
= 0.968999981880188
c1:
-1.0 x366
+1.0 x1
= 1.9670000076293945
c2:
-1.0 x366
+1.0 x2
= 1.840999960899353
c3:
-1.0 x366
+1.0 x3
= 1.6690000295639038
c4:
+1.0 x4
-1.0 x366
= 1.4210000038146973
c5:
+1.0 x5
-1.0 x366
= 1.3619999885559082
c6:
-1.0 x366
+1.0 x6
= 1.190000057220459
c7:
-1.0 x366
+1.0 x7
= 1.1419999599456787
c8:
-1.0 x366
+1.0 x8
= 1.0759999752044678
c9:
+1.0 x9
-1.0 x366
= 0.9980000257492065
c10:
-1.0 x366
+1.0 x10
= 0.9190000295639038
c11:
-1.0 x366
+1.0 x11
= 0.8360000252723694
c12:
+1.0 x12
-1.0 x366
= 0.6800000071525574
c13:
+1.0 x13
-1.0 x366
= 0.625
c14:
+1.0 x14
-1.0 x366
= 0.5849999785423279
c15:
-1.0 x366
+1.0 x15
= 0.40700000524520874
c16:
+1.0 x16
-1.0 x366
= 0.4230000078678131
c17:
+1.0 x17
-1.0 x366
= 0.46000000834465027
c18:
+1.0 x18
-1.0 x366
= 0.25099998712539673
c19:
+1.0 x19
-1.0 x366
= 0.21799999475479126
c20:
-1.0 x366
+1.0 x20
= 0.1850000023841858
c21:
+1.0 x21
-1.0 x366
= 0.30399999022483826
c22:
-1.0 x366
+1.0 x22
= 0.9980000257492065
c23:
-1.0 x366
+1.0 x23
= 0.9990000128746033
c24:
-1.0 x366
+1.0 x24
= 1.0119999647140503
c25:
-1.0 x366
+1.0 x25
= 1.0420000553131104
c26:
-1.0 x366
+1.0 x26
= 1.0410000085830688
c27:
+1.0 x27
-1.0 x366
= 0.6919999718666077
c28:
-1.0 x366
+1.0 x28
= 0.734000027179718
c29:
+1.0 x29
-1.0 x366
= 0.7649999856948853
c30:
+1.0 x30
-1.0 x366
= 0.7940000295639038
c31:
-1.0 x366
+1.0 x31
= 0.9700000286102295
c32:
+1.0 x32
-1.0 x366
= 0.996999979019165
c33:
+1.0 x33
-1.0 x366
= 0.9430000185966492
c34:
-1.0 x366
+1.0 x34
= 0.8529999852180481
c35:
-1.0 x366
+1.0 x35
= 0.6589999794960022
c36:
-1.0 x366
+1.0 x36
= 0.6620000004768372
c37:
+1.0 x37
-1.0 x366
= 0.8679999709129333
c38:
+1.0 x38
-1.0 x366
= 0.4020000100135803
c39:
+1.0 x39
-1.0 x366
= 1.406000018119812
c40:
+1.0 x40
-1.0 x366
= 1.88100004196167
c41:
+1.0 x41
-1.0 x366
= 1.0080000162124634
c42:
+1.0 x42
-1.0 x366
= 0.8930000066757202
c43:
+1.0 x43
-1.0 x366
= 0.6660000085830688
c44:
-1.0 x366
+1.0 x44
= 1.0440000295639038
c45:
+1.0 x45
-1.0 x366
= 0.8230000138282776
c46:
-1.0 x366
+1.0 x46
= 1.2419999837875366
c47:
-1.0 x366
+1.0 x47
= 1.3179999589920044
c48:
-1.0 x366
+1.0 x48
= 1.371000051498413
c49:
-1.0 x366
+1.0 x49
= 1.4270000457763672
c50:
-1.0 x366
+1.0 x50
= 1.4520000219345093
c51:
-1.0 x366
+1.0 x51
= 1.468000054359436
c52:
+1.0 x52
-1.0 x366
= 1.7869999408721924
c53:
-1.0 x366
+1.0 x53
= 2.006999969482422
c54:
+1.0 x54
-1.0 x366
= 2.615999937057495
c55:
+1.0 x55
-1.0 x366
= 1.190000057220459
c56:
-1.0 x366
+1.0 x56
= 1.0759999752044678
c57:
+1.0 x57
-1.0 x366
= 1.0110000371932983
c58:
+1.0 x58
-1.0 x366
= 1.0670000314712524
c59:
-1.0 x366
+1.0 x59
= 1.2059999704360962
c60:
-1.0 x366
+1.0 x60
= 1.4470000267028809
c61:
+1.0 x61
-1.0 x366
= 1.7130000591278076
c62:
+1.0 x62
-1.0 x366
= 1.965999960899353
c63:
+1.0 x63
-1.0 x366
= 1.3910000324249268
c64:
+1.0 x64
-1.0 x366
= 1.159000039100647
c65:
-1.0 x366
+1.0 x65
= 0.9810000061988831
c66:
-1.0 x366
+1.0 x66
= 0.878000020980835
c67:
+1.0 x67
-1.0 x366
= 0.7860000133514404
c68:
+1.0 x68
-1.0 x366
= 0.6230000257492065
c69:
+1.0 x69
-1.0 x366
= 1.1380000114440918
c70:
+1.0 x70
-1.0 x366
= 0.36500000953674316
c71:
+1.0 x71
-1.0 x366
= 0.5109999775886536
c72:
+1.0 x72
-1.0 x366
= 0.5820000171661377
c73:
+1.0 x73
-1.0 x366
= 0.6269999742507935
c74:
+1.0 x74
-1.0 x366
= 0.7129999995231628
c75:
+1.0 x75
-1.0 x366
= 0.7049999833106995
c76:
+1.0 x76
-1.0 x366
= 0.7440000176429749
c77:
+1.0 x77
-1.0 x366
= 0.7649999856948853
c78:
+1.0 x78
-1.0 x366
= 0.7820000052452087
c79:
+1.0 x79
-1.0 x366
= 0.49799999594688416
c80:
+1.0 x80
-1.0 x366
= 0.42500001192092896
c81:
+1.0 x81
-1.0 x366
= 0.4359999895095825
c82:
+1.0 x82
-1.0 x366
= 1.4259999990463257
c83:
+1.0 x83
-1.0 x366
= 1.5509999990463257
c84:
+1.0 x84
-1.0 x366
= 1.7079999446868896
c85:
+1.0 x85
-1.0 x366
= 1.7510000467300415
c86:
+1.0 x86
-1.0 x366
= 1.6690000295639038
c87:
+1.0 x87
-1.0 x366
= 4.561999797821045
c88:
+1.0 x88
-1.0 x366
= 4.38700008392334
c89:
+1.0 x89
-1.0 x366
= 4.2179999351501465
c90:
-1.0 x366
+1.0 x90
= 1.2929999828338623
c91:
-1.0 x366
+1.0 x91
= 3.744999885559082
c92:
+1.0 x92
-1.0 x366
= 0.41200000047683716
c93:
+1.0 x93
-1.0 x366
= 0.4970000088214874
c94:
-1.0 x366
+1.0 x94
= 0.7170000076293945
c95:
+1.0 x95
-1.0 x366
= 0.9070000052452087
c96:
+1.0 x96
-1.0 x366
= 0.8339999914169312
c97:
+1.0 x97
-1.0 x366
= 0.996999979019165
c98:
+1.0 x98
-1.0 x366
= 0.28600001335144043
c99:
+1.0 x99
-1.0 x366
= 0.8679999709129333
c100:
-1.0 x366
+1.0 x100
= 1.2719999551773071
c101:
+1.0 x101
-1.0 x366
= 1.746999979019165
c102:
-1.0 x366
+1.0 x102
= 2.7890000343322754
c103:
-1.0 x366
+1.0 x103
= 2.3480000495910645
c104:
-1.0 x366
+1.0 x104
= 2.2339999675750732
c105:
-1.0 x366
+1.0 x105
= 2.259000062942505
c106:
-1.0 x366
+1.0 x106
= 2.299999952316284
c107:
+1.0 x107
-1.0 x366
= 2.619999885559082
c108:
+1.0 x108
-1.0 x366
= 2.627000093460083
c109:
+1.0 x109
-1.0 x366
= 2.4200000762939453
c110:
-1.0 x366
+1.0 x110
= 2.437000036239624
c111:
+1.0 x111
-1.0 x366
= 2.3959999084472656
c112:
+1.0 x112
-1.0 x366
= 2.1700000762939453
c113:
+1.0 x113
-1.0 x366
= 1.9709999561309814
c114:
+1.0 x114
-1.0 x366
= 1.8819999694824219
c115:
+1.0 x115
-1.0 x366
= 1.7669999599456787
c116:
+1.0 x116
-1.0 x366
= 1.437999963760376
c117:
+1.0 x117
-1.0 x366
= 1.0959999561309814
c118:
+1.0 x118
-1.0 x366
= 1.027999997138977
c119:
-1.0 x366
+1.0 x119
= 0.9539999961853027
c120:
-1.0 x366
+1.0 x120
= 0.7480000257492065
c121:
-1.0 x366
+1.0 x121
= 4.451000213623047
c122:
-1.0 x366
+1.0 x122
= 4.98799991607666
c123:
-1.0 x366
+1.0 x123
= 4.513000011444092
c124:
-1.0 x366
+1.0 x124
= 0.289000004529953
c125:
-1.0 x366
+1.0 x125
= 0.3659999966621399
c126:
+1.0 x126
-1.0 x366
= 0.38199999928474426
c127:
+1.0 x127
-1.0 x366
= 0.43799999356269836
c128:
-1.0 x366
+1.0 x128
= 1.246999979019165
c129:
-1.0 x366
+1.0 x129
= 1.38100004196167
c130:
+1.0 x130
-1.0 x366
= 1.4539999961853027
c131:
-1.0 x366
+1.0 x131
= 0.6150000095367432
c132:
-1.0 x366
+1.0 x132
= 1.1619999408721924
c133:
+1.0 x133
-1.0 x366
= 0.14000000059604645
c134:
+1.0 x134
-1.0 x366
= 1.4830000400543213
c135:
-1.0 x366
+1.0 x135
= 1.3589999675750732
c136:
-1.0 x366
+1.0 x136
= 1.2769999504089355
c137:
+1.0 x137
-1.0 x366
= 1.225000023841858
c138:
+1.0 x138
-1.0 x366
= 1.1970000267028809
c139:
-1.0 x366
+1.0 x139
= 1.1549999713897705
c140:
-1.0 x366
+1.0 x140
= 0.21799999475479126
c141:
-1.0 x366
+1.0 x141
= 0.17399999499320984
c142:
-1.0 x366
+1.0 x142
= 0.12200000137090683
c143:
+1.0 x143
-1.0 x366
= 0.2630000114440918
c144:
-1.0 x366
+1.0 x144
= 0.40400001406669617
c145:
-1.0 x366
+1.0 x145
= 0.36800000071525574
c146:
-1.0 x366
+1.0 x146
= 0.7099999785423279
c147:
-1.0 x366
+1.0 x147
= 1.4950000047683716
c148:
-1.0 x366
+1.0 x148
= 1.5499999523162842
c149:
+1.0 x149
-1.0 x366
= 1.5470000505447388
c150:
+1.0 x150
-1.0 x366
= 1.5529999732971191
c151:
+1.0 x151
-1.0 x366
= 1.555999994277954
c152:
+1.0 x152
-1.0 x366
= 1.5080000162124634
c153:
-1.0 x366
+1.0 x153
= 1.6030000448226929
c154:
+1.0 x154
-1.0 x366
= 1.7239999771118164
c155:
+1.0 x155
-1.0 x366
= 1.8559999465942383
c156:
+1.0 x156
-1.0 x366
= 2.0280001163482666
c157:
+1.0 x157
-1.0 x366
= 2.2179999351501465
c158:
+1.0 x158
-1.0 x366
= 2.359999895095825
c159:
+1.0 x159
-1.0 x366
= 2.802999973297119
c160:
-1.0 x366
+1.0 x160
= 2.8970000743865967
c161:
-1.0 x366
+1.0 x161
= 2.9860000610351562
c162:
-1.0 x366
+1.0 x162
= 3.065000057220459
c163:
-1.0 x366
+1.0 x163
= 3.1549999713897705
c164:
-1.0 x366
+1.0 x164
= 2.3469998836517334
c165:
-1.0 x366
+1.0 x165
= 2.486999988555908
c166:
-1.0 x366
+1.0 x166
= 2.7690000534057617
c167:
-1.0 x366
+1.0 x167
= 3.2200000286102295
c168:
-1.0 x366
+1.0 x168
= 3.1619999408721924
c169:
-1.0 x366
+1.0 x169
= 2.7360000610351562
c170:
-1.0 x366
+1.0 x170
= 2.5439999103546143
c171:
-1.0 x366
+1.0 x171
= 2.4149999618530273
c172:
-1.0 x366
+1.0 x172
= 1.3020000457763672
c173:
-1.0 x366
+1.0 x173
= 1.4329999685287476
c174:
-1.0 x366
+1.0 x174
= 1.8240000009536743
c175:
+1.0 x175
-1.0 x366
= 1.8890000581741333
c176:
-1.0 x366
+1.0 x176
= 0.6790000200271606
c177:
+1.0 x177
-1.0 x366
= 0.9139999747276306
c178:
+1.0 x178
-1.0 x366
= 0.0430000014603138
c179:
+1.0 x179
-1.0 x366
= 0.04699999839067459
c180:
+1.0 x180
-1.0 x366
= 0.3880000114440918
c181:
+1.0 x181
-1.0 x366
= 0.3499999940395355
c182:
+1.0 x182
-1.0 x366
= 0.3720000088214874
c183:
+1.0 x366
<= -0.0


bounds

+0.0 <=  x0 <= +7.2
+0.0 <=  x1 <= +7.2
+0.0 <=  x2 <= +7.2
+0.0 <=  x3 <= +7.2
+0.0 <=  x4 <= +7.2
+0.0 <=  x5 <= +7.2
+0.0 <=  x6 <= +7.2
+0.0 <=  x7 <= +7.2
+0.0 <=  x8 <= +7.2
+0.0 <=  x9 <= +7.2
+0.0 <=  x10 <= +7.2
+0.0 <=  x11 <= +7.2
+0.0 <=  x12 <= +7.2
+0.0 <=  x13 <= +7.2
+0.0 <=  x14 <= +7.2
+0.0 <=  x15 <= +7.2
+0.0 <=  x16 <= +7.2
+0.0 <=  x17 <= +7.2
+0.0 <=  x18 <= +7.2
+0.0 <=  x19 <= +7.2
+0.0 <=  x20 <= +7.2
+0.0 <=  x21 <= +7.2
+0.0 <=  x22 <= +7.2
+0.0 <=  x23 <= +7.2
+0.0 <=  x24 <= +7.2
+0.0 <=  x25 <= +7.2
+0.0 <=  x26 <= +7.2
+0.0 <=  x27 <= +7.2
+0.0 <=  x28 <= +7.2
+0.0 <=  x29 <= +7.2
+0.0 <=  x30 <= +7.2
+0.0 <=  x31 <= +7.2
+0.0 <=  x32 <= +7.2
+0.0 <=  x33 <= +7.2
+0.0 <=  x34 <= +7.2
+0.0 <=  x35 <= +7.2
+0.0 <=  x36 <= +7.2
+0.0 <=  x37 <= +7.2
+0.0 <=  x38 <= +7.2
+0.0 <=  x39 <= +7.2
+0.0 <=  x40 <= +7.2
+0.0 <=  x41 <= +7.2
+0.0 <=  x42 <= +7.2
+0.0 <=  x43 <= +7.2
+0.0 <=  x44 <= +7.2
+0.0 <=  x45 <= +7.2
+0.0 <=  x46 <= +7.2
+0.0 <=  x47 <= +7.2
+0.0 <=  x48 <= +7.2
+0.0 <=  x49 <= +7.2
+0.0 <=  x50 <= +7.2
+0.0 <=  x51 <= +7.2
+0.0 <=  x52 <= +7.2
+0.0 <=  x53 <= +7.2
+0.0 <=  x54 <= +7.2
+0.0 <=  x55 <= +7.2
+0.0 <=  x56 <= +7.2
+0.0 <=  x57 <= +7.2
+0.0 <=  x58 <= +7.2
+0.0 <=  x59 <= +7.2
+0.0 <=  x60 <= +7.2
+0.0 <=  x61 <= +7.2
+0.0 <=  x62 <= +7.2
+0.0 <=  x63 <= +7.2
+0.0 <=  x64 <= +7.2
+0.0 <=  x65 <= +7.2
+0.0 <=  x66 <= +7.2
+0.0 <=  x67 <= +7.2
+0.0 <=  x68 <= +7.2
+0.0 <=  x69 <= +7.2
+0.0 <=  x70 <= +7.2
+0.0 <=  x71 <= +7.2
+0.0 <=  x72 <= +7.2
+0.0 <=  x73 <= +7.2
+0.0 <=  x74 <= +7.2
+0.0 <=  x75 <= +7.2
+0.0 <=  x76 <= +7.2
+0.0 <=  x77 <= +7.2
+0.0 <=  x78 <= +7.2
+0.0 <=  x79 <= +7.2
+0.0 <=  x80 <= +7.2
+0.0 <=  x81 <= +7.2
+0.0 <=  x82 <= +7.2
+0.0 <=  x83 <= +7.2
+0.0 <=  x84 <= +7.2
+0.0 <=  x85 <= +7.2
+0.0 <=  x86 <= +7.2
+0.0 <=  x87 <= +7.2
+0.0 <=  x88 <= +7.2
+0.0 <=  x89 <= +7.2
+0.0 <=  x90 <= +7.2
+0.0 <=  x91 <= +7.2
+0.0 <=  x92 <= +7.2
+0.0 <=  x93 <= +7.2
+0.0 <=  x94 <= +7.2
+0.0 <=  x95 <= +7.2
+0.0 <=  x96 <= +7.2
+0.0 <=  x97 <= +7.2
+0.0 <=  x98 <= +7.2
+0.0 <=  x99 <= +7.2
+0.0 <=  x100 <= +7.2
+0.0 <=  x101 <= +7.2
+0.0 <=  x102 <= +7.2
+0.0 <=  x103 <= +7.2
+0.0 <=  x104 <= +7.2
+0.0 <=  x105 <= +7.2
+0.0 <=  x106 <= +7.2
+0.0 <=  x107 <= +7.2
+0.0 <=  x108 <= +7.2
+0.0 <=  x109 <= +7.2
+0.0 <=  x110 <= +7.2
+0.0 <=  x111 <= +7.2
+0.0 <=  x112 <= +7.2
+0.0 <=  x113 <= +7.2
+0.0 <=  x114 <= +7.2
+0.0 <=  x115 <= +7.2
+0.0 <=  x116 <= +7.2
+0.0 <=  x117 <= +7.2
+0.0 <=  x118 <= +7.2
+0.0 <=  x119 <= +7.2
+0.0 <=  x120 <= +7.2
+0.0 <=  x121 <= +7.2
+0.0 <=  x122 <= +7.2
+0.0 <=  x123 <= +7.2
+0.0 <=  x124 <= +7.2
+0.0 <=  x125 <= +7.2
+0.0 <=  x126 <= +7.2
+0.0 <=  x127 <= +7.2
+0.0 <=  x128 <= +7.2
+0.0 <=  x129 <= +7.2
+0.0 <=  x130 <= +7.2
+0.0 <=  x131 <= +7.2
+0.0 <=  x132 <= +7.2
+0.0 <=  x133 <= +7.2
+0.0 <=  x134 <= +7.2
+0.0 <=  x135 <= +7.2
+0.0 <=  x136 <= +7.2
+0.0 <=  x137 <= +7.2
+0.0 <=  x138 <= +7.2
+0.0 <=  x139 <= +7.2
+0.0 <=  x140 <= +7.2
+0.0 <=  x141 <= +7.2
+0.0 <=  x142 <= +7.2
+0.0 <=  x143 <= +7.2
+0.0 <=  x144 <= +7.2
+0.0 <=  x145 <= +7.2
+0.0 <=  x146 <= +7.2
+0.0 <=  x147 <= +7.2
+0.0 <=  x148 <= +7.2
+0.0 <=  x149 <= +7.2
+0.0 <=  x150 <= +7.2
+0.0 <=  x151 <= +7.2
+0.0 <=  x152 <= +7.2
+0.0 <=  x153 <= +7.2
+0.0 <=  x154 <= +7.2
+0.0 <=  x155 <= +7.2
+0.0 <=  x156 <= +7.2
+0.0 <=  x157 <= +7.2
+0.0 <=  x158 <= +7.2
+0.0 <=  x159 <= +7.2
+0.0 <=  x160 <= +7.2
+0.0 <=  x161 <= +7.2
+0.0 <=  x162 <= +7.2
+0.0 <=  x163 <= +7.2
+0.0 <=  x164 <= +7.2
+0.0 <=  x165 <= +7.2
+0.0 <=  x166 <= +7.2
+0.0 <=  x167 <= +7.2
+0.0 <=  x168 <= +7.2
+0.0 <=  x169 <= +7.2
+0.0 <=  x170 <= +7.2
+0.0 <=  x171 <= +7.2
+0.0 <=  x172 <= +7.2
+0.0 <=  x173 <= +7.2
+0.0 <=  x174 <= +7.2
+0.0 <=  x175 <= +7.2
+0.0 <=  x176 <= +7.2
+0.0 <=  x177 <= +7.2
+0.0 <=  x178 <= +7.2
+0.0 <=  x179 <= +7.2
+0.0 <=  x180 <= +7.2
+0.0 <=  x181 <= +7.2
+0.0 <=  x182 <= +7.2
-7.2 <=  x183 <= +7.2
-7.2 <=  x184 <= +7.2
-7.2 <=  x185 <= +7.2
-7.2 <=  x186 <= +7.2
-7.2 <=  x187 <= +7.2
-7.2 <=  x188 <= +7.2
-7.2 <=  x189 <= +7.2
-7.2 <=  x190 <= +7.2
-7.2 <=  x191 <= +7.2
-7.2 <=  x192 <= +7.2
-7.2 <=  x193 <= +7.2
-7.2 <=  x194 <= +7.2
-7.2 <=  x195 <= +7.2
-7.2 <=  x196 <= +7.2
-7.2 <=  x197 <= +7.2
-7.2 <=  x198 <= +7.2
-7.2 <=  x199 <= +7.2
-7.2 <=  x200 <= +7.2
-7.2 <=  x201 <= +7.2
-7.2 <=  x202 <= +7.2
-7.2 <=  x203 <= +7.2
-7.2 <=  x204 <= +7.2
-7.2 <=  x205 <= +7.2
-7.2 <=  x206 <= +7.2
-7.2 <=  x207 <= +7.2
-7.2 <=  x208 <= +7.2
-7.2 <=  x209 <= +7.2
-7.2 <=  x210 <= +7.2
-7.2 <=  x211 <= +7.2
-7.2 <=  x212 <= +7.2
-7.2 <=  x213 <= +7.2
-7.2 <=  x214 <= +7.2
-7.2 <=  x215 <= +7.2
-7.2 <=  x216 <= +7.2
-7.2 <=  x217 <= +7.2
-7.2 <=  x218 <= +7.2
-7.2 <=  x219 <= +7.2
-7.2 <=  x220 <= +7.2
-7.2 <=  x221 <= +7.2
-7.2 <=  x222 <= +7.2
-7.2 <=  x223 <= +7.2
-7.2 <=  x224 <= +7.2
-7.2 <=  x225 <= +7.2
-7.2 <=  x226 <= +7.2
-7.2 <=  x227 <= +7.2
-7.2 <=  x228 <= +7.2
-7.2 <=  x229 <= +7.2
-7.2 <=  x230 <= +7.2
-7.2 <=  x231 <= +7.2
-7.2 <=  x232 <= +7.2
-7.2 <=  x233 <= +7.2
-7.2 <=  x234 <= +7.2
-7.2 <=  x235 <= +7.2
-7.2 <=  x236 <= +7.2
-7.2 <=  x237 <= +7.2
-7.2 <=  x238 <= +7.2
-7.2 <=  x239 <= +7.2
-7.2 <=  x240 <= +7.2
-7.2 <=  x241 <= +7.2
-7.2 <=  x242 <= +7.2
-7.2 <=  x243 <= +7.2
-7.2 <=  x244 <= +7.2
-7.2 <=  x245 <= +7.2
-7.2 <=  x246 <= +7.2
-7.2 <=  x247 <= +7.2
-7.2 <=  x248 <= +7.2
-7.2 <=  x249 <= +7.2
-7.2 <=  x250 <= +7.2
-7.2 <=  x251 <= +7.2
-7.2 <=  x252 <= +7.2
-7.2 <=  x253 <= +7.2
-7.2 <=  x254 <= +7.2
-7.2 <=  x255 <= +7.2
-7.2 <=  x256 <= +7.2
-7.2 <=  x257 <= +7.2
-7.2 <=  x258 <= +7.2
-7.2 <=  x259 <= +7.2
-7.2 <=  x260 <= +7.2
-7.2 <=  x261 <= +7.2
-7.2 <=  x262 <= +7.2
-7.2 <=  x263 <= +7.2
-7.2 <=  x264 <= +7.2
-7.2 <=  x265 <= +7.2
-7.2 <=  x266 <= +7.2
-7.2 <=  x267 <= +7.2
-7.2 <=  x268 <= +7.2
-7.2 <=  x269 <= +7.2
-7.2 <=  x270 <= +7.2
-7.2 <=  x271 <= +7.2
-7.2 <=  x272 <= +7.2
-7.2 <=  x273 <= +7.2
-7.2 <=  x274 <= +7.2
-7.2 <=  x275 <= +7.2
-7.2 <=  x276 <= +7.2
-7.2 <=  x277 <= +7.2
-7.2 <=  x278 <= +7.2
-7.2 <=  x279 <= +7.2
-7.2 <=  x280 <= +7.2
-7.2 <=  x281 <= +7.2
-7.2 <=  x282 <= +7.2
-7.2 <=  x283 <= +7.2
-7.2 <=  x284 <= +7.2
-7.2 <=  x285 <= +7.2
-7.2 <=  x286 <= +7.2
-7.2 <=  x287 <= +7.2
-7.2 <=  x288 <= +7.2
-7.2 <=  x289 <= +7.2
-7.2 <=  x290 <= +7.2
-7.2 <=  x291 <= +7.2
-7.2 <=  x292 <= +7.2
-7.2 <=  x293 <= +7.2
-7.2 <=  x294 <= +7.2
-7.2 <=  x295 <= +7.2
-7.2 <=  x296 <= +7.2
-7.2 <=  x297 <= +7.2
-7.2 <=  x298 <= +7.2
-7.2 <=  x299 <= +7.2
-7.2 <=  x300 <= +7.2
-7.2 <=  x301 <= +7.2
-7.2 <=  x302 <= +7.2
-7.2 <=  x303 <= +7.2
-7.2 <=  x304 <= +7.2
-7.2 <=  x305 <= +7.2
-7.2 <=  x306 <= +7.2
-7.2 <=  x307 <= +7.2
-7.2 <=  x308 <= +7.2
-7.2 <=  x309 <= +7.2
-7.2 <=  x310 <= +7.2
-7.2 <=  x311 <= +7.2
-7.2 <=  x312 <= +7.2
-7.2 <=  x313 <= +7.2
-7.2 <=  x314 <= +7.2
-7.2 <=  x315 <= +7.2
-7.2 <=  x316 <= +7.2
-7.2 <=  x317 <= +7.2
-7.2 <=  x318 <= +7.2
-7.2 <=  x319 <= +7.2
-7.2 <=  x320 <= +7.2
-7.2 <=  x321 <= +7.2
-7.2 <=  x322 <= +7.2
-7.2 <=  x323 <= +7.2
-7.2 <=  x324 <= +7.2
-7.2 <=  x325 <= +7.2
-7.2 <=  x326 <= +7.2
-7.2 <=  x327 <= +7.2
-7.2 <=  x328 <= +7.2
-7.2 <=  x329 <= +7.2
-7.2 <=  x330 <= +7.2
-7.2 <=  x331 <= +7.2
-7.2 <=  x332 <= +7.2
-7.2 <=  x333 <= +7.2
-7.2 <=  x334 <= +7.2
-7.2 <=  x335 <= +7.2
-7.2 <=  x336 <= +7.2
-7.2 <=  x337 <= +7.2
-7.2 <=  x338 <= +7.2
-7.2 <=  x339 <= +7.2
-7.2 <=  x340 <= +7.2
-7.2 <=  x341 <= +7.2
-7.2 <=  x342 <= +7.2
-7.2 <=  x343 <= +7.2
-7.2 <=  x344 <= +7.2
-7.2 <=  x345 <= +7.2
-7.2 <=  x346 <= +7.2
-7.2 <=  x347 <= +7.2
-7.2 <=  x348 <= +7.2
-7.2 <=  x349 <= +7.2
-7.2 <=  x350 <= +7.2
-7.2 <=  x351 <= +7.2
-7.2 <=  x352 <= +7.2
-7.2 <=  x353 <= +7.2
-7.2 <=  x354 <= +7.2
-7.2 <=  x355 <= +7.2
-7.2 <=  x356 <= +7.2
-7.2 <=  x357 <= +7.2
-7.2 <=  x358 <= +7.2
-7.2 <=  x359 <= +7.2
-7.2 <=  x360 <= +7.2
-7.2 <=  x361 <= +7.2
-7.2 <=  x362 <= +7.2
-7.2 <=  x363 <= +7.2
-7.2 <=  x364 <= +7.2
-7.2 <=  x365 <= +7.2
-7.2 <=  x366 <= +7.2
end
